
Gurobi 7.5.2 (linux64) logging started Sat Jun 23 16:36:09 2018

Changed value of parameter LogFile to result/ilp/simNo_8-n_100-m_40-s_7-minVAF_0.05-cov_2000-k_1-fn_0.25-fp_0.0001-na_0.15.ILP.gurobiSolverLog
   Prev: gurobi.log  Default: 
Changed value of parameter TimeLimit to 86400.0
   Prev: 1e+100  Min: 0.0  Max: 1e+100  Default: 1e+100
Optimize a model with 1265601 rows, 330440 columns and 3489120 nonzeros
Variable types: 0 continuous, 330440 integer (330440 binary)
Coefficient statistics:
  Matrix range     [1e-03, 2e+00]
  Objective range  [1e+00, 2e+01]
  Bounds range     [1e+00, 1e+00]
  RHS range        [1e-01, 2e+00]
Found heuristic solution: objective -11451.28293
Presolve removed 390868 rows and 225770 columns (presolve time = 6s) ...
Presolve removed 391319 rows and 225770 columns (presolve time = 10s) ...
Presolve removed 392038 rows and 225770 columns (presolve time = 15s) ...
Presolve removed 392038 rows and 225770 columns (presolve time = 20s) ...
Presolve removed 392038 rows and 225770 columns (presolve time = 25s) ...
Presolve removed 392038 rows and 225770 columns (presolve time = 34s) ...
Presolve removed 392038 rows and 225770 columns (presolve time = 36s) ...
Presolve removed 392038 rows and 225770 columns
Presolve time: 36.17s
Presolved: 873563 rows, 104670 columns, 2431585 nonzeros
Variable types: 0 continuous, 104670 integer (104670 binary)
Presolved: 104670 rows, 978233 columns, 2536255 nonzeros

Presolve removed 104670 rows and 978233 columns

Root simplex log...

Iteration    Objective       Primal Inf.    Dual Inf.      Time
       0    2.2272178e+01   0.000000e+00   7.862600e+04     45s
   18089   -2.1498859e+02   0.000000e+00   1.238045e+06     50s
   29555   -2.4162941e+02   0.000000e+00   1.263080e+05     55s
   42113   -2.7924059e+02   0.000000e+00   1.611687e+05     60s
   53033   -3.0088644e+02   0.000000e+00   6.402571e+04     65s
   65045   -3.1980438e+02   0.000000e+00   3.377339e+05     70s
   74873   -3.3658311e+02   0.000000e+00   2.105000e+02     75s
   76648   -3.3749140e+02   0.000000e+00   0.000000e+00     77s
   76648   -3.3749140e+02   0.000000e+00   0.000000e+00     79s

Root relaxation: objective -3.374914e+02, 76648 iterations, 39.79 seconds
Total elapsed time = 80.50s
Total elapsed time = 119.86s
Total elapsed time = 135.71s
Total elapsed time = 150.50s

    Nodes    |    Current Node    |     Objective Bounds      |     Work
 Expl Unexpl |  Obj  Depth IntInf | Incumbent    BestBd   Gap | It/Node Time

     0     0 -337.49140    0  463 -11451.283 -337.49140  97.1%     -  161s
H    0     0                    -354.2459674 -337.49140  4.73%     -  174s
     0     0 -339.87834    0 1427 -354.24597 -339.87834  4.06%     -  302s
     0     0 -339.87834    0 1426 -354.24597 -339.87834  4.06%     -  348s
     0     0 -342.51871    0 1379 -354.24597 -342.51871  3.31%     -  387s
     0     0 -342.51871    0 1377 -354.24597 -342.51871  3.31%     -  417s
     0     0 -343.20238    0 1409 -354.24597 -343.20238  3.12%     -  439s
     0     0 -343.25540    0 1361 -354.24597 -343.25540  3.10%     -  464s
     0     0 -343.25540    0 1361 -354.24597 -343.25540  3.10%     -  471s
     0     0 -343.83060    0 1397 -354.24597 -343.83060  2.94%     -  492s
     0     0 -343.83060    0 1398 -354.24597 -343.83060  2.94%     -  522s
     0     0 -344.47966    0  458 -354.24597 -344.47966  2.76%     -  547s
     0     0 -344.66482    0 1372 -354.24597 -344.66482  2.70%     -  564s
     0     0 -344.68086    0 1375 -354.24597 -344.68086  2.70%     -  573s
     0     0 -344.90652    0 1441 -354.24597 -344.90652  2.64%     -  594s
     0     0 -344.97023    0 1364 -354.24597 -344.97023  2.62%     -  628s
     0     0 -344.97023    0 1365 -354.24597 -344.97023  2.62%     -  635s
     0     0 -345.74488    0 1243 -354.24597 -345.74488  2.40%     -  652s
     0     0 -346.15982    0 1392 -354.24597 -346.15982  2.28%     -  675s
     0     0 -346.20916    0 1330 -354.24597 -346.20916  2.27%     -  685s
     0     0 -346.26115    0 1329 -354.24597 -346.26115  2.25%     -  705s
     0     0 -346.31767    0 1405 -354.24597 -346.31767  2.24%     -  729s
     0     0 -346.36914    0 1404 -354.24597 -346.36914  2.22%     -  738s
     0     0 -346.37306    0 1406 -354.24597 -346.37306  2.22%     -  746s
     0     0 -346.37306    0 1406 -354.24597 -346.37306  2.22%     -  755s
     0     0 -346.78719    0 1402 -354.24597 -346.78719  2.11%     -  775s
     0     0 -346.86971    0 1407 -354.24597 -346.86971  2.08%     -  808s
     0     0 -346.87027    0 1411 -354.24597 -346.87027  2.08%     -  816s
     0     0 -347.30399    0 1384 -354.24597 -347.30399  1.96%     -  838s
     0     0 -347.42834    0 1433 -354.24597 -347.42834  1.92%     -  863s
     0     0 -347.52217    0 1423 -354.24597 -347.52217  1.90%     -  871s
     0     0 -347.52590    0 1427 -354.24597 -347.52590  1.90%     -  878s
     0     0 -347.52590    0 1427 -354.24597 -347.52590  1.90%     -  886s
     0     0 -347.84787    0 1437 -354.24597 -347.84787  1.81%     -  907s
     0     0 -348.11026    0 1415 -354.24597 -348.11026  1.73%     -  932s
     0     0 -348.12561    0 1416 -354.24597 -348.12561  1.73%     -  939s
     0     0 -348.14650    0 1413 -354.24597 -348.14650  1.72%     -  947s
     0     0 -348.14650    0 1414 -354.24597 -348.14650  1.72%     -  956s
     0     0 -348.14743    0 1446 -354.24597 -348.14743  1.72%     -  973s
     0     0 -348.17152    0 1442 -354.24597 -348.17152  1.71%     - 1002s
     0     0 -348.18795    0 1447 -354.24597 -348.18795  1.71%     - 1009s
     0     0 -348.19349    0 1442 -354.24597 -348.19349  1.71%     - 1017s
     0     0 -348.20003    0 1440 -354.24597 -348.20003  1.71%     - 1026s
     0     0 -348.20003    0 1439 -354.24597 -348.20003  1.71%     - 1035s
     0     0 -348.25907    0 1446 -354.24597 -348.25907  1.69%     - 1052s
     0     0 -348.26872    0 1442 -354.24597 -348.26872  1.69%     - 1071s
     0     0 -348.28177    0 1449 -354.24597 -348.28177  1.68%     - 1079s
     0     0 -348.28372    0 1448 -354.24597 -348.28372  1.68%     - 1087s
     0     0 -348.28372    0 1450 -354.24597 -348.28372  1.68%     - 1094s
     0     0 -348.47022    0 1420 -354.24597 -348.47022  1.63%     - 1112s
     0     0 -348.54876    0 1447 -354.24597 -348.54876  1.61%     - 1135s
     0     0 -348.62366    0 1415 -354.24597 -348.62366  1.59%     - 1143s
     0     0 -348.66893    0 1452 -354.24597 -348.66893  1.57%     - 1152s
     0     0 -348.68408    0 1452 -354.24597 -348.68408  1.57%     - 1159s
     0     0 -348.68929    0 1452 -354.24597 -348.68929  1.57%     - 1167s
     0     0 -348.68929    0 1452 -354.24597 -348.68929  1.57%     - 1175s
     0     0 -349.17407    0 1405 -354.24597 -349.17407  1.43%     - 1249s
     0     0 -349.17407    0  237 -354.24597 -349.17407  1.43%     - 1331s
     0     0 -349.17407    0  212 -354.24597 -349.17407  1.43%     - 1335s
     0     0 -349.17407    0  214 -354.24597 -349.17407  1.43%     - 1337s
     0     0 -349.22126    0  261 -354.24597 -349.22126  1.42%     - 1338s
     0     0 -349.39552    0  232 -354.24597 -349.39552  1.37%     - 1339s
     0     0 -349.39552    0  231 -354.24597 -349.39552  1.37%     - 1340s
     0     0 -350.15999    0  195 -354.24597 -350.15999  1.15%     - 1341s
     0     0 -350.20840    0  178 -354.24597 -350.20840  1.14%     - 1345s
     0     0 -350.27087    0  178 -354.24597 -350.27087  1.12%     - 1346s
     0     0 -350.27087    0  181 -354.24597 -350.27087  1.12%     - 1348s
     0     0 -350.27087    0  176 -354.24597 -350.27087  1.12%     - 1350s
     0     0 -350.27185    0  179 -354.24597 -350.27185  1.12%     - 1352s
     0     0 -350.46448    0  184 -354.24597 -350.46448  1.07%     - 1354s
     0     0 -350.47708    0  184 -354.24597 -350.47708  1.06%     - 1356s
     0     0 -350.47764    0  184 -354.24597 -350.47764  1.06%     - 1358s
     0     0 -350.64359    0  165 -354.24597 -350.64359  1.02%     - 1359s
     0     0 -350.70113    0  192 -354.24597 -350.70113  1.00%     - 1361s
     0     0 -350.84020    0  188 -354.24597 -350.84020  0.96%     - 1362s
     0     0 -350.84055    0  190 -354.24597 -350.84055  0.96%     - 1363s
     0     0 -350.84709    0  173 -354.24597 -350.84709  0.96%     - 1365s
     0     0 -350.90589    0  192 -354.24597 -350.90589  0.94%     - 1367s
     0     0 -350.92609    0  190 -354.24597 -350.92609  0.94%     - 1369s
     0     0 -350.92987    0  187 -354.24597 -350.92987  0.94%     - 1370s
     0     0 -350.98815    0  169 -354.24597 -350.98815  0.92%     - 1372s
     0     0 -351.04586    0  187 -354.24597 -351.04586  0.90%     - 1374s
     0     0 -351.04901    0  168 -354.24597 -351.04901  0.90%     - 1375s
     0     0 -351.06947    0  193 -354.24597 -351.06947  0.90%     - 1376s
     0     0 -351.07229    0  189 -354.24597 -351.07229  0.90%     - 1377s
     0     0 -351.20123    0  192 -354.24597 -351.20123  0.86%     - 1378s
     0     0 -351.24783    0  194 -354.24597 -351.24783  0.85%     - 1380s
     0     0 -351.28761    0  192 -354.24597 -351.28761  0.84%     - 1382s
     0     0 -351.29662    0  191 -354.24597 -351.29662  0.83%     - 1383s
     0     0 -351.29999    0  182 -354.24597 -351.29999  0.83%     - 1384s
     0     0 -351.30303    0  188 -354.24597 -351.30303  0.83%     - 1385s
     0     0 -351.30414    0  187 -354.24597 -351.30414  0.83%     - 1387s
     0     0 -351.34755    0  188 -354.24597 -351.34755  0.82%     - 1389s
     0     0 -351.42955    0  187 -354.24597 -351.42955  0.80%     - 1391s
     0     0 -351.43724    0  196 -354.24597 -351.43724  0.79%     - 1393s
     0     0 -351.43724    0  196 -354.24597 -351.43724  0.79%     - 1394s
     0     0 -351.44502    0  192 -354.24597 -351.44502  0.79%     - 1396s
     0     0 -351.44623    0  194 -354.24597 -351.44623  0.79%     - 1398s
     0     0 -351.44623    0  195 -354.24597 -351.44623  0.79%     - 1400s
     0     0     cutoff    0      -354.24597 -354.24597  0.00%     - 1426s

Cutting planes:
  Gomory: 3
  Zero half: 85

Explored 1 nodes (111542 simplex iterations) in 1427.00 seconds
Thread count was 1 (of 80 available processors)

Solution count 3: -354.246 -354.246 -11451.3 

Optimal solution found (tolerance 1.00e-04)
Best objective -3.542459673507e+02, best bound -3.542459673507e+02, gap 0.0000%
